sat
(:binary-propagations  1172
 :decisions            2394
 :del-clause           193
 :final-checks         15
 :max-generation       1
 :max-memory           25.05
 :memory               21.58
 :mk-bool-var          1195
 :mk-clause            323
 :mk-clause-binary     800
 :num-allocs           47135028
 :num-checks           1
 :propagations         1571
 :quant-instantiations 195
 :restarts             14
 :rlimit-count         899908
 :time                 0.17)
